(set-info :smt-lib-version 2.6)
(set-logic QF_SLIA)
(set-info :source |
Generated by: Joel Day, Thorsten Ehlers, Mitja Kulczynski, Federico Mora, Florin Manea, Dirk Nowotka, Danny Poulsen, Zhengyang Lu
Application: Test WOORPJE
Target solver: WOORPJE
Publications: Day, J. D., Ehlers, T., Kulczynski, M., Manea, F., Nowotka, D., & Poulsen, D. B. (2019). On solving word equations using SAT. In RP 2019
Description: Enriches a system of 30 word equations by suitable linear constraints
|)
(set-info :license "https://creativecommons.org/licenses/by/4.0/")
(set-info :category "random")
(set-info :status unknown)

(declare-fun G () String)
(declare-fun E () String)
(declare-fun A () String)
(declare-fun C () String)
(assert (= (str.++  "eabcaeb" C E "ebacba")  (str.++  "eabcaeb" A "bcbc" G C "ebacba") ))
(assert (= (str.++  "fbfafecfbbdaf" C "fcbbffeafbbfbe" C "bbbbffaaa")  (str.++  "fbfafecfbbdaf" C "fcbbffeafbbfbe" C "bbbbffaaa") ))
(assert (= (str.++  "afacedcafe" C "fdafbeacaafedabbedccaf" C "ffcb")  (str.++  "afacedcafe" C "fdafbeacaafedabbedccaf" C "ffcb") ))
(assert (>=(* (str.len A) 18) 162))
(assert (>=(* (str.len C) 6) 6))
(assert (<=(* (str.len C) 15) 90))
(assert (>=(* (str.len E) 10) 130))
(check-sat)

(exit)
